p cnf 482 1000
1 -2 0
2 -1 0
3 4 0
5 4 0
-3 -5 -4 0
-6 4 -7 0
6 -4 -7 0
7 -4 -6 0
6 4 7 0
-7 0
8 9 0
10 9 0
-8 -10 -9 0
-5 9 -11 0
5 -9 -11 0
11 -9 -5 0
5 9 11 0
-11 0
12 13 0
14 13 0
-12 -14 -13 0
-10 13 -15 0
10 -13 -15 0
15 -13 -10 0
10 13 15 0
-15 0
16 17 0
18 17 0
-16 -18 -17 0
-14 17 -19 0
14 -17 -19 0
19 -17 -14 0
14 17 19 0
-19 0
20 21 0
22 21 0
-20 -22 -21 0
-18 21 -23 0
18 -21 -23 0
23 -21 -18 0
18 21 23 0
-23 0
24 25 0
26 25 0
-24 -26 -25 0
-22 25 -27 0
22 -25 -27 0
27 -25 -22 0
22 25 27 0
-27 0
28 29 0
30 29 0
-28 -30 -29 0
-26 29 -31 0
26 -29 -31 0
31 -29 -26 0
26 29 31 0
-31 0
32 33 0
34 33 0
-32 -34 -33 0
-30 33 -35 0
30 -33 -35 0
35 -33 -30 0
30 33 35 0
-35 0
36 37 0
38 37 0
-36 -38 -37 0
-34 37 -39 0
34 -37 -39 0
39 -37 -34 0
34 37 39 0
-39 0
40 41 0
42 41 0
-40 -42 -41 0
-38 41 -43 0
38 -41 -43 0
43 -41 -38 0
38 41 43 0
-43 0
44 45 0
46 45 0
-44 -46 -45 0
-42 45 -47 0
42 -45 -47 0
47 -45 -42 0
42 45 47 0
-47 0
24 48 0
28 48 0
32 48 0
36 48 0
40 48 0
44 48 0
49 48 0
-50 0
-46 48 -51 0
46 -48 -51 0
51 -48 -46 0
46 48 51 0
-51 0
52 53 0
54 53 0
-52 -54 -53 0
-55 53 -56 0
55 -53 -56 0
56 -53 -55 0
55 53 56 0
-56 0
57 58 0
59 58 0
-57 -59 -58 0
-54 58 -60 0
54 -58 -60 0
60 -58 -54 0
54 58 60 0
-60 0
61 62 0
63 62 0
-61 -63 -62 0
-59 62 -64 0
59 -62 -64 0
64 -62 -59 0
59 62 64 0
-64 0
65 66 0
67 66 0
-65 -67 -66 0
-63 66 -68 0
63 -66 -68 0
68 -66 -63 0
63 66 68 0
-68 0
69 70 0
71 70 0
-69 -71 -70 0
-67 70 -72 0
67 -70 -72 0
72 -70 -67 0
67 70 72 0
-72 0
73 74 0
75 74 0
-73 -75 -74 0
-71 74 -76 0
71 -74 -76 0
76 -74 -71 0
71 74 76 0
-76 0
77 78 0
79 78 0
-77 -79 -78 0
-75 78 -80 0
75 -78 -80 0
80 -78 -75 0
75 78 80 0
-80 0
81 82 0
83 82 0
-81 -83 -82 0
-79 82 -84 0
79 -82 -84 0
84 -82 -79 0
79 82 84 0
-84 0
85 86 0
87 86 0
-85 -87 -86 0
-83 86 -88 0
83 -86 -88 0
88 -86 -83 0
83 86 88 0
-88 0
89 90 0
91 90 0
-89 -91 -90 0
-87 90 -92 0
87 -90 -92 0
92 -90 -87 0
87 90 92 0
-92 0
93 94 0
95 94 0
-93 -95 -94 0
-91 94 -96 0
91 -94 -96 0
96 -94 -91 0
91 94 96 0
-96 0
77 97 0
81 97 0
85 97 0
89 97 0
93 97 0
98 97 0
-99 0
-95 97 -100 0
95 -97 -100 0
100 -97 -95 0
95 97 100 0
-100 0
101 102 0
103 102 0
-101 -103 -102 0
-104 102 -105 0
104 -102 -105 0
105 -102 -104 0
104 102 105 0
-105 0
106 107 0
108 107 0
-106 -108 -107 0
-103 107 -109 0
103 -107 -109 0
109 -107 -103 0
103 107 109 0
-109 0
110 111 0
112 111 0
-110 -112 -111 0
-108 111 -113 0
108 -111 -113 0
113 -111 -108 0
108 111 113 0
-113 0
114 115 0
116 115 0
-114 -116 -115 0
-112 115 -117 0
112 -115 -117 0
117 -115 -112 0
112 115 117 0
-117 0
118 119 0
120 119 0
-118 -120 -119 0
-116 119 -121 0
116 -119 -121 0
121 -119 -116 0
116 119 121 0
-121 0
122 123 0
124 123 0
-122 -124 -123 0
-120 123 -125 0
120 -123 -125 0
125 -123 -120 0
120 123 125 0
-125 0
126 127 0
128 127 0
-126 -128 -127 0
-124 127 -129 0
124 -127 -129 0
129 -127 -124 0
124 127 129 0
-129 0
130 131 0
132 131 0
-130 -132 -131 0
-128 131 -133 0
128 -131 -133 0
133 -131 -128 0
128 131 133 0
-133 0
134 135 0
136 135 0
-134 -136 -135 0
-132 135 -137 0
132 -135 -137 0
137 -135 -132 0
132 135 137 0
-137 0
138 139 0
140 139 0
-138 -140 -139 0
-136 139 -141 0
136 -139 -141 0
141 -139 -136 0
136 139 141 0
-141 0
142 143 0
144 143 0
-142 -144 -143 0
-140 143 -145 0
140 -143 -145 0
145 -143 -140 0
140 143 145 0
-145 0
118 146 0
122 146 0
126 146 0
130 146 0
134 146 0
138 146 0
142 146 0
147 146 0
-148 0
-144 146 -149 0
144 -146 -149 0
149 -146 -144 0
144 146 149 0
-149 0
150 151 0
152 151 0
-150 -152 -151 0
-153 151 -154 0
153 -151 -154 0
154 -151 -153 0
153 151 154 0
-154 0
155 156 0
157 156 0
-155 -157 -156 0
-152 156 -158 0
152 -156 -158 0
158 -156 -152 0
152 156 158 0
-158 0
159 160 0
161 160 0
-159 -161 -160 0
-157 160 -162 0
157 -160 -162 0
162 -160 -157 0
157 160 162 0
-162 0
163 164 0
165 164 0
-163 -165 -164 0
-161 164 -166 0
161 -164 -166 0
166 -164 -161 0
161 164 166 0
-166 0
167 168 0
169 168 0
-167 -169 -168 0
-165 168 -170 0
165 -168 -170 0
170 -168 -165 0
165 168 170 0
-170 0
171 172 0
173 172 0
-171 -173 -172 0
-169 172 -174 0
169 -172 -174 0
174 -172 -169 0
169 172 174 0
-174 0
175 176 0
177 176 0
-175 -177 -176 0
-173 176 -178 0
173 -176 -178 0
178 -176 -173 0
173 176 178 0
-178 0
179 180 0
181 180 0
-179 -181 -180 0
-177 180 -182 0
177 -180 -182 0
182 -180 -177 0
177 180 182 0
-182 0
183 184 0
185 184 0
-183 -185 -184 0
-181 184 -186 0
181 -184 -186 0
186 -184 -181 0
181 184 186 0
-186 0
187 188 0
189 188 0
-187 -189 -188 0
-185 188 -190 0
185 -188 -190 0
190 -188 -185 0
185 188 190 0
-190 0
191 192 0
193 192 0
-191 -193 -192 0
-189 192 -194 0
189 -192 -194 0
194 -192 -189 0
189 192 194 0
-194 0
195 196 0
197 196 0
-195 -197 -196 0
-193 196 -198 0
193 -196 -198 0
198 -196 -193 0
193 196 198 0
-198 0
171 199 0
175 199 0
179 199 0
183 199 0
187 199 0
191 199 0
195 199 0
200 199 0
-201 0
-197 199 -202 0
197 -199 -202 0
202 -199 -197 0
197 199 202 0
-202 0
203 204 0
205 204 0
-203 -205 -204 0
-206 204 -207 0
206 -204 -207 0
207 -204 -206 0
206 204 207 0
-207 0
208 209 0
210 209 0
-208 -210 -209 0
-205 209 -211 0
205 -209 -211 0
211 -209 -205 0
205 209 211 0
-211 0
212 213 0
214 213 0
-212 -214 -213 0
-210 213 -215 0
210 -213 -215 0
215 -213 -210 0
210 213 215 0
-215 0
216 217 0
218 217 0
-216 -218 -217 0
-214 217 -219 0
214 -217 -219 0
219 -217 -214 0
214 217 219 0
-219 0
220 221 0
222 221 0
-220 -222 -221 0
-218 221 -223 0
218 -221 -223 0
223 -221 -218 0
218 221 223 0
-223 0
128 224 0
225 224 0
-128 -225 -224 0
-222 224 -226 0
222 -224 -226 0
226 -224 -222 0
222 224 226 0
-226 0
227 228 0
229 228 0
-227 -229 -228 0
-230 228 -231 0
230 -228 -231 0
231 -228 -230 0
230 228 231 0
-231 0
232 233 0
234 233 0
-232 -234 -233 0
-229 233 -235 0
229 -233 -235 0
235 -233 -229 0
229 233 235 0
-235 0
236 237 0
238 237 0
-236 -238 -237 0
-234 237 -239 0
234 -237 -239 0
239 -237 -234 0
234 237 239 0
-239 0
240 241 0
242 241 0
-240 -242 -241 0
-238 241 -243 0
238 -241 -243 0
243 -241 -238 0
238 241 243 0
-243 0
244 245 0
246 245 0
-244 -246 -245 0
-242 245 -247 0
242 -245 -247 0
247 -245 -242 0
242 245 247 0
-247 0
248 249 0
250 249 0
-248 -250 -249 0
-246 249 -251 0
246 -249 -251 0
251 -249 -246 0
246 249 251 0
-251 0
252 253 0
254 253 0
-252 -254 -253 0
-250 253 -255 0
250 -253 -255 0
255 -253 -250 0
250 253 255 0
-255 0
256 257 0
258 257 0
-256 -258 -257 0
-254 257 -259 0
254 -257 -259 0
259 -257 -254 0
254 257 259 0
-259 0
260 261 0
262 261 0
-260 -262 -261 0
-258 261 -263 0
258 -261 -263 0
263 -261 -258 0
258 261 263 0
-263 0
264 265 0
266 265 0
-264 -266 -265 0
-262 265 -267 0
262 -265 -267 0
267 -265 -262 0
262 265 267 0
-267 0
268 269 0
270 269 0
-268 -270 -269 0
-266 269 -271 0
266 -269 -271 0
271 -269 -266 0
266 269 271 0
-271 0
272 273 0
274 273 0
-272 -274 -273 0
-270 273 -275 0
270 -273 -275 0
275 -273 -270 0
270 273 275 0
-275 0
276 277 0
278 277 0
-276 -278 -277 0
-274 277 -279 0
274 -277 -279 0
279 -277 -274 0
274 277 279 0
-279 0
252 280 0
256 280 0
260 280 0
264 280 0
268 280 0
272 280 0
276 280 0
281 280 0
-282 0
-278 280 -283 0
278 -280 -283 0
283 -280 -278 0
278 280 283 0
-283 0
284 285 0
286 285 0
-284 -286 -285 0
-287 285 -288 0
287 -285 -288 0
288 -285 -287 0
287 285 288 0
-288 0
289 290 0
291 290 0
-289 -291 -290 0
-286 290 -292 0
286 -290 -292 0
292 -290 -286 0
286 290 292 0
-292 0
293 294 0
295 294 0
-293 -295 -294 0
-291 294 -296 0
291 -294 -296 0
296 -294 -291 0
291 294 296 0
-296 0
297 298 0
299 298 0
-297 -299 -298 0
-295 298 -300 0
295 -298 -300 0
300 -298 -295 0
295 298 300 0
-300 0
301 302 0
303 302 0
-301 -303 -302 0
-299 302 -304 0
299 -302 -304 0
304 -302 -299 0
299 302 304 0
-304 0
305 306 0
307 306 0
-305 -307 -306 0
-303 306 -308 0
303 -306 -308 0
308 -306 -303 0
303 306 308 0
-308 0
309 310 0
311 310 0
-309 -311 -310 0
-307 310 -312 0
307 -310 -312 0
312 -310 -307 0
307 310 312 0
-312 0
313 314 0
315 314 0
-313 -315 -314 0
-311 314 -316 0
311 -314 -316 0
316 -314 -311 0
311 314 316 0
-316 0
317 318 0
319 318 0
-317 -319 -318 0
-315 318 -320 0
315 -318 -320 0
320 -318 -315 0
315 318 320 0
-320 0
321 322 0
323 322 0
-321 -323 -322 0
-319 322 -324 0
319 -322 -324 0
324 -322 -319 0
319 322 324 0
-324 0
325 326 0
327 326 0
-325 -327 -326 0
-323 326 -328 0
323 -326 -328 0
328 -326 -323 0
323 326 328 0
-328 0
329 330 0
331 330 0
-329 -331 -330 0
-327 330 -332 0
327 -330 -332 0
332 -330 -327 0
327 330 332 0
-332 0
313 333 0
317 333 0
321 333 0
325 333 0
329 333 0
334 333 0
-335 0
-331 333 -336 0
331 -333 -336 0
336 -333 -331 0
331 333 336 0
-336 0
337 338 0
339 338 0
-337 -339 -338 0
-340 338 -341 0
340 -338 -341 0
341 -338 -340 0
340 338 341 0
-341 0
342 343 0
344 343 0
-342 -344 -343 0
-339 343 -345 0
339 -343 -345 0
345 -343 -339 0
339 343 345 0
-345 0
346 347 0
348 347 0
-346 -348 -347 0
-344 347 -349 0
344 -347 -349 0
349 -347 -344 0
344 347 349 0
-349 0
350 351 0
352 351 0
-350 -352 -351 0
-348 351 -353 0
348 -351 -353 0
353 -351 -348 0
348 351 353 0
-353 0
354 355 0
356 355 0
-354 -356 -355 0
-352 355 -357 0
352 -355 -357 0
357 -355 -352 0
352 355 357 0
-357 0
358 359 0
360 359 0
-358 -360 -359 0
-356 359 -361 0
356 -359 -361 0
361 -359 -356 0
356 359 361 0
-361 0
362 363 0
364 363 0
-362 -364 -363 0
-360 363 -365 0
360 -363 -365 0
365 -363 -360 0
360 363 365 0
-365 0
366 367 0
368 367 0
-366 -368 -367 0
-364 367 -369 0
364 -367 -369 0
369 -367 -364 0
364 367 369 0
-369 0
370 371 0
372 371 0
-370 -372 -371 0
-368 371 -373 0
368 -371 -373 0
373 -371 -368 0
368 371 373 0
-373 0
374 375 0
376 375 0
-374 -376 -375 0
-372 375 -377 0
372 -375 -377 0
377 -375 -372 0
372 375 377 0
-377 0
378 379 0
380 379 0
-378 -380 -379 0
-376 379 -381 0
376 -379 -381 0
381 -379 -376 0
376 379 381 0
-381 0
382 383 0
384 383 0
-382 -384 -383 0
-380 383 -385 0
380 -383 -385 0
385 -383 -380 0
380 383 385 0
-385 0
386 387 0
388 387 0
-386 -388 -387 0
-384 387 -389 0
384 -387 -389 0
389 -387 -384 0
384 387 389 0
-389 0
390 391 0
392 391 0
-390 -392 -391 0
-388 391 -393 0
388 -391 -393 0
393 -391 -388 0
388 391 393 0
-393 0
366 394 0
370 394 0
374 394 0
378 394 0
382 394 0
386 394 0
390 394 0
395 394 0
-396 0
-392 394 -397 0
392 -394 -397 0
397 -394 -392 0
392 394 397 0
-397 0
398 399 0
400 399 0
-398 -400 -399 0
-401 399 -402 0
401 -399 -402 0
402 -399 -401 0
401 399 402 0
-402 0
403 404 0
405 404 0
-403 -405 -404 0
-400 404 -406 0
400 -404 -406 0
406 -404 -400 0
400 404 406 0
-406 0
407 408 0
409 408 0
-407 -409 -408 0
-405 408 -410 0
405 -408 -410 0
410 -408 -405 0
405 408 410 0
-410 0
411 412 0
413 412 0
-411 -413 -412 0
-409 412 -414 0
409 -412 -414 0
414 -412 -409 0
409 412 414 0
-414 0
415 416 0
417 416 0
-415 -417 -416 0
-413 416 -418 0
413 -416 -418 0
418 -416 -413 0
413 416 418 0
-418 0
323 419 0
420 419 0
-323 -420 -419 0
-417 419 -421 0
417 -419 -421 0
421 -419 -417 0
417 419 421 0
-421 0
422 423 0
424 423 0
-422 -424 -423 0
-425 423 -426 0
425 -423 -426 0
426 -423 -425 0
425 423 426 0
-426 0
427 428 0
429 428 0
-427 -429 -428 0
-424 428 -430 0
424 -428 -430 0
430 -428 -424 0
424 428 430 0
-430 0
431 432 0
433 432 0
-431 -433 -432 0
-429 432 -434 0
429 -432 -434 0
434 -432 -429 0
429 432 434 0
-434 0
435 436 0
437 436 0
-435 -437 -436 0
-433 436 -438 0
433 -436 -438 0
438 -436 -433 0
433 436 438 0
-438 0
439 440 0
441 440 0
-439 -441 -440 0
-437 440 -442 0
437 -440 -442 0
442 -440 -437 0
437 440 442 0
-442 0
443 444 0
445 444 0
-443 -445 -444 0
-441 444 -446 0
441 -444 -446 0
446 -444 -441 0
441 444 446 0
-446 0
447 448 0
449 448 0
-447 -449 -448 0
-445 448 -450 0
445 -448 -450 0
450 -448 -445 0
445 448 450 0
-450 0
451 452 0
453 452 0
-451 -453 -452 0
-449 452 -454 0
449 -452 -454 0
454 -452 -449 0
449 452 454 0
-454 0
455 456 0
457 456 0
-455 -457 -456 0
-453 456 -458 0
453 -456 -458 0
458 -456 -453 0
453 456 458 0
-458 0
459 460 0
461 460 0
-459 -461 -460 0
-457 460 -462 0
457 -460 -462 0
462 -460 -457 0
457 460 462 0
-462 0
463 464 0
465 464 0
-463 -465 -464 0
-461 464 -466 0
461 -464 -466 0
466 -464 -461 0
461 464 466 0
-466 0
467 468 0
469 468 0
-467 -469 -468 0
-465 468 -470 0
465 -468 -470 0
470 -468 -465 0
465 468 470 0
-470 0
471 472 0
473 472 0
-471 -473 -472 0
-469 472 -474 0
469 -472 -474 0
474 -472 -469 0
469 472 474 0
-474 0
475 476 0
477 476 0
-475 -477 -476 0
-473 476 -478 0
473 -476 -478 0
478 -476 -473 0
473 476 478 0
-478 0
451 479 0
455 479 0
459 479 0
463 479 0
467 479 0
471 479 0
475 479 0
480 479 0
-481 0
-477 479 -482 0
477 -479 -482 0
482 -479 -477 0
477 479 482 0
-482 0
1 0
-6 0
-55 0
-104 0
-153 0
-206 0
-230 0
-287 0
-340 0
-401 0
-425 0
